p wcnf 130 156 157 
1 47 123 0 
1 -78 126 0 
1 -45 107 0 
1 98 -76 0 
1 -80 13 0 
1 -81 67 0 
1 -114 -19 0 
1 108 -29 0 
1 -11 24 0 
1 83 -93 0 
1 -32 -104 0 
1 20 -61 0 
1 -23 -111 0 
1 75 105 0 
1 37 -45 0 
1 123 24 0 
1 6 44 0 
1 -79 111 0 
1 51 96 0 
1 100 -25 0 
1 -104 99 0 
1 32 63 0 
1 29 114 0 
1 87 1 0 
1 -32 127 0 
1 126 6 0 
1 -18 54 0 
1 -100 -17 0 
1 -88 123 0 
1 81 48 0 
1 21 -119 0 
1 118 -110 0 
1 122 17 0 
1 -97 -5 0 
1 75 54 0 
1 -98 110 0 
1 125 70 0 
1 77 -94 0 
1 -115 -20 0 
1 -33 -83 0 
1 67 125 0 
1 -113 -12 0 
1 105 109 0 
1 111 83 0 
1 90 -41 0 
1 -2 -128 0 
1 -3 -64 0 
1 -40 54 0 
1 13 -99 0 
1 -128 121 0 
1 -38 -111 0 
1 8 46 0 
1 69 100 0 
1 -95 -106 0 
1 -34 81 0 
1 -68 -34 0 
1 -57 -30 0 
1 -7 -20 0 
1 -56 5 0 
1 72 33 0 
1 73 -41 0 
1 -60 22 0 
1 -85 -86 0 
1 -69 -18 0 
1 -43 -27 0 
1 106 76 0 
1 13 9 0 
1 113 -23 0 
1 -59 27 0 
1 -20 46 0 
1 -36 -107 0 
1 79 -59 0 
1 -107 96 0 
1 -93 74 0 
1 -23 -34 0 
1 52 30 0 
1 -118 40 0 
1 114 89 0 
1 -5 53 0 
1 40 -92 0 
1 -106 -36 0 
1 -4 14 0 
1 31 37 0 
1 14 -51 0 
1 16 -48 0 
1 -86 -66 0 
1 -11 -22 0 
1 33 -122 0 
1 -58 -92 0 
1 -27 -106 0 
1 31 77 0 
1 22 -97 0 
1 -63 -7 0 
1 95 49 0 
1 -72 -117 0 
1 -57 70 0 
1 -81 -101 0 
1 -64 -85 0 
1 -88 47 0 
1 -129 -54 0 
1 -48 -44 0 
1 40 -90 0 
1 68 -44 0 
1 24 70 0 
1 129 -113 0 
1 -89 -61 0 
1 82 -101 0 
1 94 -86 0 
1 88 -47 0 
1 -52 41 0 
1 -66 81 0 
1 46 109 0 
1 119 49 0 
1 -107 -117 0 
1 -97 -92 0 
1 -101 -104 0 
1 18 -61 0 
1 3 -35 0 
1 -55 15 0 
1 52 -78 0 
1 -121 -128 0 
1 33 116 0 
1 21 121 0 
1 -70 -106 0 
1 -127 -47 0 
1 -18 -59 0 
1 -65 107 0 
1 9 -22 0 
1 -56 -24 0 
1 67 48 0 
1 73 -71 0 
1 121 -9 0 
1 -40 -106 0 
1 58 -127 0 
1 -91 -47 0 
1 76 20 0 
1 -97 -66 0 
1 -70 -111 0 
1 -109 -24 0 
1 -48 -103 0 
1 -25 -69 0 
1 -25 -120 0 
1 -119 -56 0 
1 130 51 0 
1 -40 97 0 
1 129 -3 0 
1 22 -25 0 
1 -62 74 0 
1 -41 71 0 
1 77 -81 0 
1 117 16 0 
1 -2 -36 0 
1 88 43 0 
1 -24 -117 0 
1 -37 109 0 
1 -20 -88 0 
